(set-info :source |printed by MathSAT|)
(declare-fun |.x{1619}| () Int)
(declare-fun |.x{1663}| () Int)
(declare-fun |.x{1620}| () (Array Int Int))
(declare-fun |.x{1664}| () (Array Int Int))
(declare-fun |.x{1621}| () (Array Int Int))
(declare-fun |.x{1665}| () (Array Int Int))
(declare-fun |.x{1622}| () (Array Int (Array Int Int)))
(declare-fun |.x{1666}| () (Array Int (Array Int Int)))
(declare-fun |.x{1623}| () (Array Int (Array Int Int)))
(declare-fun |.x{1667}| () (Array Int (Array Int Int)))
(declare-fun |.x{1624}| () Int)
(declare-fun |.x{1668}| () Int)
(declare-fun |.x{1625}| () Int)
(declare-fun |.x{1669}| () Int)
(declare-fun |.x{1626}| () (Array Int Int))
(declare-fun |.x{1670}| () (Array Int Int))
(declare-fun |.x{1627}| () (Array Int Int))
(declare-fun |.x{1671}| () (Array Int Int))
(declare-fun |.x{1628}| () Int)
(declare-fun |.x{1672}| () Int)
(declare-fun |.x{1629}| () Int)
(declare-fun |.x{1673}| () Int)
(declare-fun |.x{1630}| () Int)
(declare-fun |.x{1674}| () Int)
(declare-fun |.x{1631}| () Int)
(declare-fun |.x{1675}| () Int)
(declare-fun |.x{1632}| () Int)
(declare-fun |.x{1676}| () Int)
(declare-fun |.x{1633}| () Int)
(declare-fun |.x{1677}| () Int)
(declare-fun |.x{1634}| () Int)
(declare-fun |.x{1678}| () Int)
(declare-fun |.x{1635}| () Int)
(declare-fun |.x{1679}| () Int)
(declare-fun |.x{1636}| () Int)
(declare-fun |.x{1680}| () Int)
(declare-fun |.x{1637}| () Int)
(declare-fun |.x{1681}| () Int)
(declare-fun |.x{1638}| () Int)
(declare-fun |.x{1682}| () Int)
(declare-fun |.x{1639}| () Int)
(declare-fun |.x{1683}| () Int)
(declare-fun |.x{1662}| () Bool)
(declare-fun |.x{1640}| () Bool)
(declare-fun |.loc{5}| () Bool)
(declare-fun |.loc{9}| () Bool)
(declare-fun |.loc{6}| () Bool)
(declare-fun |.loc{10}| () Bool)
(declare-fun |.loc{7}| () Bool)
(declare-fun |.loc{11}| () Bool)
(declare-fun |.loc{8}| () Bool)
(declare-fun |.loc{12}| () Bool)
(declare-fun |.x{87}| () (Array Int Int))
(define-fun .def_54 () Bool (! |.loc{6}| :next |.loc{10}|))
(define-fun .def_102 () Bool (not .def_54))
(define-fun .def_52 () Bool (! |.loc{5}| :next |.loc{9}|))
(define-fun .def_672 () Bool (and .def_52 .def_102))
(define-fun .def_56 () Bool (! |.loc{7}| :next |.loc{11}|))
(define-fun .def_104 () Bool (not .def_56))
(define-fun .def_673 () Bool (and .def_104 .def_672))
(define-fun .def_58 () Bool (! |.loc{8}| :next |.loc{12}|))
(define-fun .def_85 () Bool (not .def_58))
(define-fun .def_674 () Bool (and .def_85 .def_673))
(define-fun .def_28 () Int (! |.x{1629}| :next |.x{1673}|))
(define-fun .def_26 () Int (! |.x{1628}| :next |.x{1672}|))
(define-fun .def_666 () Bool (= .def_26 .def_28))
(define-fun .def_16 () (Array Int (Array Int Int)) (! |.x{1623}| :next |.x{1667}|))
(define-fun .def_14 () (Array Int (Array Int Int)) (! |.x{1622}| :next |.x{1666}|))
(define-fun .def_665 () Bool (= .def_14 .def_16))
(define-fun .def_667 () Bool (and .def_665 .def_666))
(define-fun .def_50 () Bool (! |.x{1662}| :next |.x{1640}|))
(define-fun .def_664 () Bool (not .def_50))
(define-fun .def_668 () Bool (and .def_664 .def_667))
(define-fun .def_20 () Int (! |.x{1625}| :next |.x{1669}|))
(define-fun .def_18 () Int (! |.x{1624}| :next |.x{1668}|))
(define-fun .def_663 () Bool (= .def_18 .def_20))
(define-fun .def_669 () Bool (and .def_663 .def_668))
(define-fun .def_24 () (Array Int Int) (! |.x{1627}| :next |.x{1671}|))
(define-fun .def_22 () (Array Int Int) (! |.x{1626}| :next |.x{1670}|))
(define-fun .def_662 () Bool (= .def_22 .def_24))
(define-fun .def_670 () Bool (and .def_662 .def_669))
(define-fun .def_12 () (Array Int Int) (! |.x{1621}| :next |.x{1665}|))
(define-fun .def_10 () (Array Int Int) (! |.x{1620}| :next |.x{1664}|))
(define-fun .def_661 () Bool (= .def_10 .def_12))
(define-fun .def_671 () Bool (and .def_661 .def_670))
(define-fun .def_675 () Bool (! (and .def_671 .def_674) :init true))
(define-fun .def_658 () Bool (= .def_12 |.x{1665}|))
(define-fun .def_8 () Int (! |.x{1619}| :next |.x{1663}|))
(define-fun .def_656 () Bool (= .def_8 |.x{1663}|))
(define-fun .def_654 () Bool (= .def_28 |.x{1673}|))
(define-fun .def_652 () Bool (= .def_24 |.x{1671}|))
(define-fun .def_650 () Bool (= .def_16 |.x{1667}|))
(define-fun .def_649 () Bool (= .def_20 |.x{1669}|))
(define-fun .def_651 () Bool (and .def_649 .def_650))
(define-fun .def_653 () Bool (and .def_651 .def_652))
(define-fun .def_655 () Bool (and .def_653 .def_654))
(define-fun .def_657 () Bool (and .def_655 .def_656))
(define-fun .def_659 () Bool (and .def_657 .def_658))
(define-fun .def_646 () Bool (= .def_26 |.x{1672}|))
(define-fun .def_644 () Bool (= .def_22 |.x{1670}|))
(define-fun .def_642 () Bool (= .def_18 |.x{1668}|))
(define-fun .def_32 () Int (! |.x{1631}| :next |.x{1675}|))
(define-fun .def_117 () Bool (= .def_32 |.x{1675}|))
(define-fun .def_30 () Int (! |.x{1630}| :next |.x{1674}|))
(define-fun .def_89 () Bool (= .def_30 |.x{1674}|))
(define-fun .def_578 () Bool (and .def_89 .def_117))
(define-fun .def_34 () Int (! |.x{1632}| :next |.x{1676}|))
(define-fun .def_119 () Bool (= .def_34 |.x{1676}|))
(define-fun .def_579 () Bool (and .def_119 .def_578))
(define-fun .def_38 () Int (! |.x{1634}| :next |.x{1678}|))
(define-fun .def_142 () Bool (= .def_38 |.x{1678}|))
(define-fun .def_599 () Bool (and .def_142 .def_579))
(define-fun .def_144 () Bool (not .def_52))
(define-fun .def_600 () Bool (and .def_144 .def_599))
(define-fun .def_601 () Bool (and .def_144 .def_600))
(define-fun .def_602 () Bool (and |.x{1640}| .def_601))
(define-fun .def_603 () Bool (and |.x{1640}| .def_602))
(define-fun .def_158 () Bool (= .def_10 |.x{1664}|))
(define-fun .def_604 () Bool (and .def_158 .def_603))
(define-fun .def_594 () (Array Int Int) (store .def_10 .def_34 0))
(define-fun .def_595 () Bool (= |.x{1664}| .def_594))
(define-fun .def_593 () Bool (= |.x{1678}| 0))
(define-fun .def_596 () Bool (and .def_593 .def_595))
(define-fun .def_597 () Bool (or .def_50 .def_596))
(define-fun .def_589 () Bool (= |.x{1674}| |.x{1678}|))
(define-fun .def_590 () Bool (or |.x{1640}| .def_589))
(define-fun .def_591 () Bool (and .def_52 .def_590))
(define-fun .def_111 () Bool (= .def_50 |.x{1640}|))
(define-fun .def_592 () Bool (and .def_111 .def_591))
(define-fun .def_598 () Bool (and .def_592 .def_597))
(define-fun .def_605 () Bool (or .def_598 .def_604))
(define-fun .def_606 () Bool (and .def_56 .def_605))
(define-fun .def_607 () Bool (and .def_102 .def_606))
(define-fun .def_608 () Bool (and |.loc{10}| .def_607))
(define-fun .def_36 () Int (! |.x{1633}| :next |.x{1677}|))
(define-fun .def_413 () Bool (= .def_36 0))
(define-fun .def_585 () Bool (or .def_50 .def_413))
(define-fun .def_580 () Bool (and .def_52 .def_579))
(define-fun .def_581 () Bool (and .def_54 .def_580))
(define-fun .def_582 () Bool (and .def_142 .def_581))
(define-fun .def_212 () Bool (not |.loc{10}|))
(define-fun .def_583 () Bool (and .def_212 .def_582))
(define-fun .def_584 () Bool (and .def_104 .def_583))
(define-fun .def_586 () Bool (and .def_584 .def_585))
(define-fun .def_587 () Bool (and .def_111 .def_586))
(define-fun .def_588 () Bool (and .def_158 .def_587))
(define-fun .def_609 () Bool (or .def_588 .def_608))
(define-fun .def_99 () Bool (= .def_36 |.x{1677}|))
(define-fun .def_610 () Bool (and .def_99 .def_609))
(define-fun .def_40 () Int (! |.x{1635}| :next |.x{1679}|))
(define-fun .def_146 () Bool (= .def_40 |.x{1679}|))
(define-fun .def_611 () Bool (and .def_146 .def_610))
(define-fun .def_612 () Bool (and |.loc{11}| .def_611))
(define-fun .def_46 () Int (! |.x{1638}| :next |.x{1682}|))
(define-fun .def_107 () Bool (= .def_46 |.x{1682}|))
(define-fun .def_613 () Bool (and .def_107 .def_612))
(define-fun .def_109 () Bool (not |.loc{9}|))
(define-fun .def_614 () Bool (and .def_109 .def_613))
(define-fun .def_48 () Int (! |.x{1639}| :next |.x{1683}|))
(define-fun .def_480 () Bool (<= 100000 .def_48))
(define-fun .def_568 () Bool (not .def_480))
(define-fun .def_564 () Int (* 4 .def_48))
(define-fun .def_565 () Int (+ .def_32 .def_564))
(define-fun .def_126 () (Array Int Int) (select .def_14 .def_34))
(define-fun .def_566 () Int (select .def_126 .def_565))
(define-fun .def_567 () Bool (= |.x{1679}| .def_566))
(define-fun .def_569 () Bool (and .def_567 .def_568))
(define-fun .def_561 () Bool (= |.x{1679}| 45))
(define-fun .def_562 () Int (ite .def_561 1 0))
(define-fun .def_563 () Bool (= |.x{1682}| .def_562))
(define-fun .def_570 () Bool (and .def_563 .def_569))
(define-fun .def_560 () Bool (= |.x{1677}| |.x{1682}|))
(define-fun .def_571 () Bool (and .def_560 .def_570))
(define-fun .def_572 () Bool (or .def_50 .def_571))
(define-fun .def_87 () Bool (not |.loc{11}|))
(define-fun .def_553 () Bool (and .def_87 .def_89))
(define-fun .def_554 () Bool (and .def_117 .def_553))
(define-fun .def_555 () Bool (and .def_119 .def_554))
(define-fun .def_556 () Bool (and .def_54 .def_555))
(define-fun .def_557 () Bool (and .def_142 .def_556))
(define-fun .def_558 () Bool (and .def_144 .def_557))
(define-fun .def_559 () Bool (and .def_104 .def_558))
(define-fun .def_573 () Bool (and .def_559 .def_572))
(define-fun .def_574 () Bool (and |.loc{9}| .def_573))
(define-fun .def_575 () Bool (and |.loc{10}| .def_574))
(define-fun .def_576 () Bool (and .def_111 .def_575))
(define-fun .def_577 () Bool (and .def_158 .def_576))
(define-fun .def_615 () Bool (or .def_577 .def_614))
(define-fun .def_616 () Bool (and .def_58 .def_615))
(define-fun .def_44 () Int (! |.x{1637}| :next |.x{1681}|))
(define-fun .def_149 () Bool (= .def_44 |.x{1681}|))
(define-fun .def_617 () Bool (and .def_149 .def_616))
(define-fun .def_155 () Bool (= .def_48 |.x{1683}|))
(define-fun .def_618 () Bool (and .def_155 .def_617))
(define-fun .def_537 () Int (* (- 1) |.x{1683}|))
(define-fun .def_538 () Int (+ .def_48 .def_537))
(define-fun .def_539 () Bool (= .def_538 (- 1)))
(define-fun .def_540 () Bool (or |.x{1640}| .def_539))
(define-fun .def_115 () Bool (and .def_85 .def_87))
(define-fun .def_116 () Bool (and .def_89 .def_115))
(define-fun .def_118 () Bool (and .def_116 .def_117))
(define-fun .def_541 () Bool (and .def_118 .def_540))
(define-fun .def_542 () Bool (and .def_119 .def_541))
(define-fun .def_543 () Bool (and .def_99 .def_542))
(define-fun .def_544 () Bool (and .def_142 .def_543))
(define-fun .def_545 () Bool (and .def_144 .def_544))
(define-fun .def_546 () Bool (and .def_102 .def_545))
(define-fun .def_547 () Bool (and .def_104 .def_546))
(define-fun .def_548 () Bool (and |.loc{10}| .def_547))
(define-fun .def_549 () Bool (and .def_107 .def_548))
(define-fun .def_550 () Bool (and .def_109 .def_549))
(define-fun .def_551 () Bool (and .def_111 .def_550))
(define-fun .def_552 () Bool (and .def_158 .def_551))
(define-fun .def_619 () Bool (or .def_552 .def_618))
(define-fun .def_518 () Bool (= |.x{1683}| 0))
(define-fun .def_519 () Bool (or .def_50 .def_518))
(define-fun .def_520 () Bool (and .def_87 .def_519))
(define-fun .def_521 () Bool (and .def_89 .def_520))
(define-fun .def_522 () Bool (and .def_117 .def_521))
(define-fun .def_523 () Bool (and .def_119 .def_522))
(define-fun .def_524 () Bool (and .def_99 .def_523))
(define-fun .def_525 () Bool (and .def_52 .def_524))
(define-fun .def_526 () Bool (and .def_142 .def_525))
(define-fun .def_527 () Bool (and .def_58 .def_526))
(define-fun .def_528 () Bool (and .def_146 .def_527))
(define-fun .def_529 () Bool (and .def_102 .def_528))
(define-fun .def_530 () Bool (and .def_104 .def_529))
(define-fun .def_531 () Bool (and .def_149 .def_530))
(define-fun .def_532 () Bool (and |.loc{10}| .def_531))
(define-fun .def_533 () Bool (and .def_107 .def_532))
(define-fun .def_534 () Bool (and .def_109 .def_533))
(define-fun .def_535 () Bool (and .def_111 .def_534))
(define-fun .def_536 () Bool (and .def_158 .def_535))
(define-fun .def_620 () Bool (or .def_536 .def_619))
(define-fun .def_500 () Bool (and .def_50 .def_89))
(define-fun .def_501 () Bool (and .def_117 .def_500))
(define-fun .def_502 () Bool (and .def_119 .def_501))
(define-fun .def_503 () Bool (and .def_99 .def_502))
(define-fun .def_504 () Bool (and .def_54 .def_503))
(define-fun .def_505 () Bool (and .def_142 .def_504))
(define-fun .def_506 () Bool (and .def_58 .def_505))
(define-fun .def_507 () Bool (and .def_212 .def_506))
(define-fun .def_508 () Bool (and .def_144 .def_507))
(define-fun .def_509 () Bool (and .def_146 .def_508))
(define-fun .def_510 () Bool (and .def_104 .def_509))
(define-fun .def_511 () Bool (and .def_149 .def_510))
(define-fun .def_512 () Bool (and |.loc{9}| .def_511))
(define-fun .def_513 () Bool (and |.loc{11}| .def_512))
(define-fun .def_514 () Bool (and .def_107 .def_513))
(define-fun .def_515 () Bool (and .def_111 .def_514))
(define-fun .def_516 () Bool (and .def_155 .def_515))
(define-fun .def_517 () Bool (and .def_158 .def_516))
(define-fun .def_621 () Bool (or .def_517 .def_620))
(define-fun .def_481 () Bool (or .def_50 .def_480))
(define-fun .def_482 () Bool (and .def_89 .def_481))
(define-fun .def_483 () Bool (and .def_117 .def_482))
(define-fun .def_484 () Bool (and .def_119 .def_483))
(define-fun .def_485 () Bool (and .def_99 .def_484))
(define-fun .def_486 () Bool (and .def_54 .def_485))
(define-fun .def_487 () Bool (and .def_142 .def_486))
(define-fun .def_488 () Bool (and .def_58 .def_487))
(define-fun .def_489 () Bool (and .def_212 .def_488))
(define-fun .def_490 () Bool (and .def_144 .def_489))
(define-fun .def_491 () Bool (and .def_146 .def_490))
(define-fun .def_492 () Bool (and .def_104 .def_491))
(define-fun .def_493 () Bool (and .def_149 .def_492))
(define-fun .def_494 () Bool (and |.loc{9}| .def_493))
(define-fun .def_495 () Bool (and |.loc{11}| .def_494))
(define-fun .def_496 () Bool (and .def_107 .def_495))
(define-fun .def_497 () Bool (and .def_111 .def_496))
(define-fun .def_498 () Bool (and .def_155 .def_497))
(define-fun .def_499 () Bool (and .def_158 .def_498))
(define-fun .def_622 () Bool (or .def_499 .def_621))
(define-fun .def_462 () Bool (and .def_50 .def_87))
(define-fun .def_463 () Bool (and .def_89 .def_462))
(define-fun .def_464 () Bool (and .def_117 .def_463))
(define-fun .def_465 () Bool (and .def_119 .def_464))
(define-fun .def_466 () Bool (and .def_99 .def_465))
(define-fun .def_467 () Bool (and .def_142 .def_466))
(define-fun .def_468 () Bool (and .def_58 .def_467))
(define-fun .def_469 () Bool (and .def_212 .def_468))
(define-fun .def_470 () Bool (and .def_146 .def_469))
(define-fun .def_471 () Bool (and .def_144 .def_470))
(define-fun .def_472 () Bool (and .def_102 .def_471))
(define-fun .def_473 () Bool (and .def_104 .def_472))
(define-fun .def_474 () Bool (and .def_149 .def_473))
(define-fun .def_475 () Bool (and |.loc{9}| .def_474))
(define-fun .def_476 () Bool (and .def_107 .def_475))
(define-fun .def_477 () Bool (and .def_111 .def_476))
(define-fun .def_478 () Bool (and .def_155 .def_477))
(define-fun .def_479 () Bool (and .def_158 .def_478))
(define-fun .def_623 () Bool (or .def_479 .def_622))
(define-fun .def_42 () Int (! |.x{1636}| :next |.x{1680}|))
(define-fun .def_135 () Bool (<= 100000 .def_42))
(define-fun .def_160 () Bool (or .def_50 .def_135))
(define-fun .def_444 () Bool (and .def_87 .def_160))
(define-fun .def_445 () Bool (and .def_89 .def_444))
(define-fun .def_446 () Bool (and .def_117 .def_445))
(define-fun .def_447 () Bool (and .def_119 .def_446))
(define-fun .def_448 () Bool (and .def_99 .def_447))
(define-fun .def_449 () Bool (and .def_142 .def_448))
(define-fun .def_450 () Bool (and .def_58 .def_449))
(define-fun .def_451 () Bool (and .def_212 .def_450))
(define-fun .def_452 () Bool (and .def_144 .def_451))
(define-fun .def_453 () Bool (and .def_146 .def_452))
(define-fun .def_454 () Bool (and .def_102 .def_453))
(define-fun .def_455 () Bool (and .def_104 .def_454))
(define-fun .def_456 () Bool (and .def_149 .def_455))
(define-fun .def_457 () Bool (and |.loc{9}| .def_456))
(define-fun .def_458 () Bool (and .def_107 .def_457))
(define-fun .def_459 () Bool (and .def_111 .def_458))
(define-fun .def_460 () Bool (and .def_155 .def_459))
(define-fun .def_461 () Bool (and .def_158 .def_460))
(define-fun .def_624 () Bool (or .def_461 .def_623))
(define-fun .def_172 () Bool (= .def_42 |.x{1680}|))
(define-fun .def_83 () Bool (= .def_14 |.x{1666}|))
(define-fun .def_443 () Bool (and .def_83 .def_172))
(define-fun .def_625 () Bool (and .def_443 .def_624))
(define-fun .def_124 () Int (* 4 .def_42))
(define-fun .def_125 () Int (+ .def_32 .def_124))
(define-fun .def_419 () (Array Int Int) (store .def_126 .def_125 45))
(define-fun .def_420 () (Array Int (Array Int Int)) (store .def_14 .def_34 .def_419))
(define-fun .def_421 () Bool (= |.x{1666}| .def_420))
(define-fun .def_136 () Bool (not .def_135))
(define-fun .def_422 () Bool (and .def_136 .def_421))
(define-fun .def_131 () Int (* (- 1) |.x{1680}|))
(define-fun .def_132 () Int (+ .def_42 .def_131))
(define-fun .def_133 () Bool (= .def_132 (- 1)))
(define-fun .def_423 () Bool (and .def_133 .def_422))
(define-fun .def_424 () Bool (or .def_50 .def_423))
(define-fun .def_425 () Bool (and .def_87 .def_424))
(define-fun .def_426 () Bool (and .def_89 .def_425))
(define-fun .def_427 () Bool (and .def_117 .def_426))
(define-fun .def_428 () Bool (and .def_119 .def_427))
(define-fun .def_429 () Bool (and .def_99 .def_428))
(define-fun .def_430 () Bool (and .def_142 .def_429))
(define-fun .def_431 () Bool (and .def_58 .def_430))
(define-fun .def_432 () Bool (and .def_212 .def_431))
(define-fun .def_433 () Bool (and .def_144 .def_432))
(define-fun .def_434 () Bool (and .def_146 .def_433))
(define-fun .def_435 () Bool (and .def_102 .def_434))
(define-fun .def_436 () Bool (and .def_104 .def_435))
(define-fun .def_437 () Bool (and .def_149 .def_436))
(define-fun .def_438 () Bool (and .def_107 .def_437))
(define-fun .def_439 () Bool (and .def_109 .def_438))
(define-fun .def_440 () Bool (and .def_111 .def_439))
(define-fun .def_441 () Bool (and .def_155 .def_440))
(define-fun .def_442 () Bool (and .def_158 .def_441))
(define-fun .def_626 () Bool (or .def_442 .def_625))
(define-fun .def_627 () Bool (and |.loc{12}| .def_626))
(define-fun .def_414 () Bool (not .def_413))
(define-fun .def_415 () Bool (or .def_50 .def_414))
(define-fun .def_394 () Bool (and .def_83 .def_87))
(define-fun .def_395 () Bool (and .def_89 .def_394))
(define-fun .def_396 () Bool (and .def_117 .def_395))
(define-fun .def_397 () Bool (and .def_119 .def_396))
(define-fun .def_398 () Bool (and .def_99 .def_397))
(define-fun .def_399 () Bool (and .def_52 .def_398))
(define-fun .def_400 () Bool (and .def_54 .def_399))
(define-fun .def_401 () Bool (and .def_142 .def_400))
(define-fun .def_402 () Bool (and .def_58 .def_401))
(define-fun .def_403 () Bool (and .def_212 .def_402))
(define-fun .def_404 () Bool (and .def_146 .def_403))
(define-fun .def_405 () Bool (and .def_172 .def_404))
(define-fun .def_406 () Bool (and .def_104 .def_405))
(define-fun .def_407 () Bool (and .def_149 .def_406))
(define-fun .def_408 () Bool (and .def_107 .def_407))
(define-fun .def_409 () Bool (and .def_109 .def_408))
(define-fun .def_410 () Bool (and .def_111 .def_409))
(define-fun .def_411 () Bool (and .def_155 .def_410))
(define-fun .def_113 () Bool (not |.loc{12}|))
(define-fun .def_412 () Bool (and .def_113 .def_411))
(define-fun .def_416 () Bool (and .def_412 .def_415))
(define-fun .def_417 () Bool (and .def_158 .def_416))
(define-fun .def_628 () Bool (or .def_417 .def_627))
(define-fun .def_183 () Bool (and .def_50 .def_83))
(define-fun .def_374 () Bool (and .def_87 .def_183))
(define-fun .def_375 () Bool (and .def_89 .def_374))
(define-fun .def_376 () Bool (and .def_117 .def_375))
(define-fun .def_377 () Bool (and .def_119 .def_376))
(define-fun .def_378 () Bool (and .def_99 .def_377))
(define-fun .def_379 () Bool (and .def_142 .def_378))
(define-fun .def_380 () Bool (and .def_56 .def_379))
(define-fun .def_381 () Bool (and .def_58 .def_380))
(define-fun .def_382 () Bool (and .def_212 .def_381))
(define-fun .def_383 () Bool (and .def_144 .def_382))
(define-fun .def_384 () Bool (and .def_146 .def_383))
(define-fun .def_385 () Bool (and .def_102 .def_384))
(define-fun .def_386 () Bool (and .def_172 .def_385))
(define-fun .def_387 () Bool (and .def_149 .def_386))
(define-fun .def_388 () Bool (and .def_107 .def_387))
(define-fun .def_389 () Bool (and .def_109 .def_388))
(define-fun .def_390 () Bool (and .def_111 .def_389))
(define-fun .def_391 () Bool (and .def_155 .def_390))
(define-fun .def_392 () Bool (and .def_113 .def_391))
(define-fun .def_393 () Bool (and .def_158 .def_392))
(define-fun .def_629 () Bool (or .def_393 .def_628))
(define-fun .def_204 () Bool (and .def_83 .def_85))
(define-fun .def_355 () Bool (and .def_87 .def_204))
(define-fun .def_356 () Bool (and .def_89 .def_355))
(define-fun .def_357 () Bool (and .def_117 .def_356))
(define-fun .def_358 () Bool (and .def_119 .def_357))
(define-fun .def_359 () Bool (and .def_99 .def_358))
(define-fun .def_360 () Bool (and .def_52 .def_359))
(define-fun .def_361 () Bool (and .def_54 .def_360))
(define-fun .def_362 () Bool (and .def_142 .def_361))
(define-fun .def_363 () Bool (and .def_56 .def_362))
(define-fun .def_364 () Bool (and .def_212 .def_363))
(define-fun .def_365 () Bool (and .def_146 .def_364))
(define-fun .def_366 () Bool (and .def_149 .def_365))
(define-fun .def_367 () Bool (and .def_107 .def_366))
(define-fun .def_368 () Bool (and |.loc{12}| .def_367))
(define-fun .def_369 () Bool (and .def_109 .def_368))
(define-fun .def_370 () Bool (and .def_111 .def_369))
(define-fun .def_371 () Bool (and .def_155 .def_370))
(define-fun .def_372 () Bool (and .def_158 .def_371))
(define-fun .def_76 () Bool (= |.x{1680}| 0))
(define-fun .def_224 () Bool (or .def_50 .def_76))
(define-fun .def_373 () Bool (and .def_224 .def_372))
(define-fun .def_630 () Bool (or .def_373 .def_629))
(define-fun .def_184 () Bool (and .def_85 .def_183))
(define-fun .def_271 () Bool (and .def_89 .def_184))
(define-fun .def_272 () Bool (and .def_117 .def_271))
(define-fun .def_273 () Bool (and .def_119 .def_272))
(define-fun .def_274 () Bool (and .def_99 .def_273))
(define-fun .def_275 () Bool (and .def_142 .def_274))
(define-fun .def_341 () Bool (and .def_54 .def_275))
(define-fun .def_342 () Bool (and .def_56 .def_341))
(define-fun .def_343 () Bool (and .def_146 .def_342))
(define-fun .def_344 () Bool (and .def_144 .def_343))
(define-fun .def_345 () Bool (and .def_172 .def_344))
(define-fun .def_346 () Bool (and .def_149 .def_345))
(define-fun .def_347 () Bool (and |.loc{9}| .def_346))
(define-fun .def_348 () Bool (and |.loc{10}| .def_347))
(define-fun .def_349 () Bool (and |.loc{11}| .def_348))
(define-fun .def_350 () Bool (and .def_107 .def_349))
(define-fun .def_351 () Bool (and .def_111 .def_350))
(define-fun .def_352 () Bool (and .def_155 .def_351))
(define-fun .def_353 () Bool (and .def_113 .def_352))
(define-fun .def_354 () Bool (and .def_158 .def_353))
(define-fun .def_631 () Bool (or .def_354 .def_630))
(define-fun .def_161 () Bool (and .def_83 .def_160))
(define-fun .def_162 () Bool (and .def_85 .def_161))
(define-fun .def_252 () Bool (and .def_89 .def_162))
(define-fun .def_253 () Bool (and .def_117 .def_252))
(define-fun .def_254 () Bool (and .def_119 .def_253))
(define-fun .def_255 () Bool (and .def_99 .def_254))
(define-fun .def_256 () Bool (and .def_142 .def_255))
(define-fun .def_327 () Bool (and .def_54 .def_256))
(define-fun .def_328 () Bool (and .def_56 .def_327))
(define-fun .def_329 () Bool (and .def_146 .def_328))
(define-fun .def_330 () Bool (and .def_144 .def_329))
(define-fun .def_331 () Bool (and .def_172 .def_330))
(define-fun .def_332 () Bool (and .def_149 .def_331))
(define-fun .def_333 () Bool (and |.loc{9}| .def_332))
(define-fun .def_334 () Bool (and |.loc{10}| .def_333))
(define-fun .def_335 () Bool (and |.loc{11}| .def_334))
(define-fun .def_336 () Bool (and .def_107 .def_335))
(define-fun .def_337 () Bool (and .def_111 .def_336))
(define-fun .def_338 () Bool (and .def_155 .def_337))
(define-fun .def_339 () Bool (and .def_113 .def_338))
(define-fun .def_340 () Bool (and .def_158 .def_339))
(define-fun .def_632 () Bool (or .def_340 .def_631))
(define-fun .def_304 () (Array Int Int) (store .def_126 .def_125 44))
(define-fun .def_305 () (Array Int (Array Int Int)) (store .def_14 .def_34 .def_304))
(define-fun .def_306 () Bool (= |.x{1666}| .def_305))
(define-fun .def_307 () Bool (and .def_136 .def_306))
(define-fun .def_308 () Bool (and .def_133 .def_307))
(define-fun .def_309 () Bool (or .def_50 .def_308))
(define-fun .def_226 () Bool (and .def_85 .def_89))
(define-fun .def_227 () Bool (and .def_117 .def_226))
(define-fun .def_310 () Bool (and .def_227 .def_309))
(define-fun .def_311 () Bool (and .def_119 .def_310))
(define-fun .def_312 () Bool (and .def_99 .def_311))
(define-fun .def_313 () Bool (and .def_54 .def_312))
(define-fun .def_314 () Bool (and .def_142 .def_313))
(define-fun .def_315 () Bool (and .def_56 .def_314))
(define-fun .def_316 () Bool (and .def_144 .def_315))
(define-fun .def_317 () Bool (and .def_146 .def_316))
(define-fun .def_318 () Bool (and .def_149 .def_317))
(define-fun .def_319 () Bool (and |.loc{10}| .def_318))
(define-fun .def_320 () Bool (and |.loc{11}| .def_319))
(define-fun .def_321 () Bool (and .def_107 .def_320))
(define-fun .def_322 () Bool (and .def_109 .def_321))
(define-fun .def_323 () Bool (and .def_111 .def_322))
(define-fun .def_324 () Bool (and .def_155 .def_323))
(define-fun .def_325 () Bool (and .def_113 .def_324))
(define-fun .def_326 () Bool (and .def_158 .def_325))
(define-fun .def_633 () Bool (or .def_326 .def_632))
(define-fun .def_205 () Bool (and .def_89 .def_204))
(define-fun .def_206 () Bool (and .def_117 .def_205))
(define-fun .def_207 () Bool (and .def_119 .def_206))
(define-fun .def_208 () Bool (and .def_99 .def_207))
(define-fun .def_209 () Bool (and .def_52 .def_208))
(define-fun .def_210 () Bool (and .def_142 .def_209))
(define-fun .def_290 () Bool (and .def_56 .def_210))
(define-fun .def_291 () Bool (and .def_146 .def_290))
(define-fun .def_292 () Bool (and .def_102 .def_291))
(define-fun .def_293 () Bool (and .def_149 .def_292))
(define-fun .def_294 () Bool (and |.loc{10}| .def_293))
(define-fun .def_295 () Bool (and |.loc{11}| .def_294))
(define-fun .def_296 () Bool (and .def_107 .def_295))
(define-fun .def_297 () Bool (and .def_109 .def_296))
(define-fun .def_298 () Bool (and .def_111 .def_297))
(define-fun .def_299 () Bool (and .def_155 .def_298))
(define-fun .def_300 () Bool (and .def_113 .def_299))
(define-fun .def_301 () Bool (and .def_158 .def_300))
(define-fun .def_302 () Bool (and .def_224 .def_301))
(define-fun .def_634 () Bool (or .def_302 .def_633))
(define-fun .def_276 () Bool (and .def_56 .def_275))
(define-fun .def_277 () Bool (and .def_212 .def_276))
(define-fun .def_278 () Bool (and .def_146 .def_277))
(define-fun .def_279 () Bool (and .def_144 .def_278))
(define-fun .def_280 () Bool (and .def_102 .def_279))
(define-fun .def_281 () Bool (and .def_172 .def_280))
(define-fun .def_282 () Bool (and .def_149 .def_281))
(define-fun .def_283 () Bool (and |.loc{9}| .def_282))
(define-fun .def_284 () Bool (and |.loc{11}| .def_283))
(define-fun .def_285 () Bool (and .def_107 .def_284))
(define-fun .def_286 () Bool (and .def_111 .def_285))
(define-fun .def_287 () Bool (and .def_155 .def_286))
(define-fun .def_288 () Bool (and .def_113 .def_287))
(define-fun .def_289 () Bool (and .def_158 .def_288))
(define-fun .def_635 () Bool (or .def_289 .def_634))
(define-fun .def_257 () Bool (and .def_56 .def_256))
(define-fun .def_258 () Bool (and .def_212 .def_257))
(define-fun .def_259 () Bool (and .def_146 .def_258))
(define-fun .def_260 () Bool (and .def_144 .def_259))
(define-fun .def_261 () Bool (and .def_102 .def_260))
(define-fun .def_262 () Bool (and .def_172 .def_261))
(define-fun .def_263 () Bool (and .def_149 .def_262))
(define-fun .def_264 () Bool (and |.loc{9}| .def_263))
(define-fun .def_265 () Bool (and |.loc{11}| .def_264))
(define-fun .def_266 () Bool (and .def_107 .def_265))
(define-fun .def_267 () Bool (and .def_111 .def_266))
(define-fun .def_268 () Bool (and .def_155 .def_267))
(define-fun .def_269 () Bool (and .def_113 .def_268))
(define-fun .def_270 () Bool (and .def_158 .def_269))
(define-fun .def_636 () Bool (or .def_270 .def_635))
(define-fun .def_245 () (Array Int Int) (store .def_126 .def_125 43))
(define-fun .def_246 () (Array Int (Array Int Int)) (store .def_14 .def_34 .def_245))
(define-fun .def_247 () Bool (= |.x{1666}| .def_246))
(define-fun .def_248 () Bool (and .def_136 .def_247))
(define-fun .def_249 () Bool (and .def_133 .def_248))
(define-fun .def_250 () Bool (or .def_50 .def_249))
(define-fun .def_228 () Bool (and .def_119 .def_227))
(define-fun .def_229 () Bool (and .def_99 .def_228))
(define-fun .def_230 () Bool (and .def_142 .def_229))
(define-fun .def_231 () Bool (and .def_56 .def_230))
(define-fun .def_232 () Bool (and .def_212 .def_231))
(define-fun .def_233 () Bool (and .def_144 .def_232))
(define-fun .def_234 () Bool (and .def_146 .def_233))
(define-fun .def_235 () Bool (and .def_102 .def_234))
(define-fun .def_236 () Bool (and .def_149 .def_235))
(define-fun .def_237 () Bool (and |.loc{11}| .def_236))
(define-fun .def_238 () Bool (and .def_107 .def_237))
(define-fun .def_239 () Bool (and .def_109 .def_238))
(define-fun .def_240 () Bool (and .def_111 .def_239))
(define-fun .def_241 () Bool (and .def_155 .def_240))
(define-fun .def_242 () Bool (and .def_113 .def_241))
(define-fun .def_243 () Bool (and .def_158 .def_242))
(define-fun .def_251 () Bool (and .def_243 .def_250))
(define-fun .def_637 () Bool (or .def_251 .def_636))
(define-fun .def_211 () Bool (and .def_54 .def_210))
(define-fun .def_213 () Bool (and .def_211 .def_212))
(define-fun .def_214 () Bool (and .def_146 .def_213))
(define-fun .def_215 () Bool (and .def_104 .def_214))
(define-fun .def_216 () Bool (and .def_149 .def_215))
(define-fun .def_217 () Bool (and |.loc{11}| .def_216))
(define-fun .def_218 () Bool (and .def_107 .def_217))
(define-fun .def_219 () Bool (and .def_109 .def_218))
(define-fun .def_220 () Bool (and .def_111 .def_219))
(define-fun .def_221 () Bool (and .def_155 .def_220))
(define-fun .def_222 () Bool (and .def_113 .def_221))
(define-fun .def_223 () Bool (and .def_158 .def_222))
(define-fun .def_225 () Bool (and .def_223 .def_224))
(define-fun .def_638 () Bool (or .def_225 .def_637))
(define-fun .def_185 () Bool (and .def_87 .def_184))
(define-fun .def_186 () Bool (and .def_89 .def_185))
(define-fun .def_187 () Bool (and .def_117 .def_186))
(define-fun .def_188 () Bool (and .def_119 .def_187))
(define-fun .def_189 () Bool (and .def_99 .def_188))
(define-fun .def_190 () Bool (and .def_142 .def_189))
(define-fun .def_191 () Bool (and .def_54 .def_190))
(define-fun .def_192 () Bool (and .def_146 .def_191))
(define-fun .def_193 () Bool (and .def_144 .def_192))
(define-fun .def_194 () Bool (and .def_172 .def_193))
(define-fun .def_195 () Bool (and .def_104 .def_194))
(define-fun .def_196 () Bool (and .def_149 .def_195))
(define-fun .def_197 () Bool (and |.loc{9}| .def_196))
(define-fun .def_198 () Bool (and |.loc{10}| .def_197))
(define-fun .def_199 () Bool (and .def_107 .def_198))
(define-fun .def_200 () Bool (and .def_111 .def_199))
(define-fun .def_201 () Bool (and .def_155 .def_200))
(define-fun .def_202 () Bool (and .def_113 .def_201))
(define-fun .def_203 () Bool (and .def_158 .def_202))
(define-fun .def_639 () Bool (or .def_203 .def_638))
(define-fun .def_163 () Bool (and .def_87 .def_162))
(define-fun .def_164 () Bool (and .def_89 .def_163))
(define-fun .def_165 () Bool (and .def_117 .def_164))
(define-fun .def_166 () Bool (and .def_119 .def_165))
(define-fun .def_167 () Bool (and .def_99 .def_166))
(define-fun .def_168 () Bool (and .def_142 .def_167))
(define-fun .def_169 () Bool (and .def_54 .def_168))
(define-fun .def_170 () Bool (and .def_146 .def_169))
(define-fun .def_171 () Bool (and .def_144 .def_170))
(define-fun .def_173 () Bool (and .def_171 .def_172))
(define-fun .def_174 () Bool (and .def_104 .def_173))
(define-fun .def_175 () Bool (and .def_149 .def_174))
(define-fun .def_176 () Bool (and |.loc{9}| .def_175))
(define-fun .def_177 () Bool (and |.loc{10}| .def_176))
(define-fun .def_178 () Bool (and .def_107 .def_177))
(define-fun .def_179 () Bool (and .def_111 .def_178))
(define-fun .def_180 () Bool (and .def_155 .def_179))
(define-fun .def_181 () Bool (and .def_113 .def_180))
(define-fun .def_182 () Bool (and .def_158 .def_181))
(define-fun .def_640 () Bool (or .def_182 .def_639))
(define-fun .def_137 () Bool (and .def_133 .def_136))
(define-fun .def_127 () (Array Int Int) (store .def_126 .def_125 42))
(define-fun .def_128 () (Array Int (Array Int Int)) (store .def_14 .def_34 .def_127))
(define-fun .def_129 () Bool (= |.x{1666}| .def_128))
(define-fun .def_138 () Bool (and .def_129 .def_137))
(define-fun .def_139 () Bool (or .def_50 .def_138))
(define-fun .def_120 () Bool (and .def_118 .def_119))
(define-fun .def_121 () Bool (and .def_99 .def_120))
(define-fun .def_140 () Bool (and .def_121 .def_139))
(define-fun .def_141 () Bool (and .def_54 .def_140))
(define-fun .def_143 () Bool (and .def_141 .def_142))
(define-fun .def_145 () Bool (and .def_143 .def_144))
(define-fun .def_147 () Bool (and .def_145 .def_146))
(define-fun .def_148 () Bool (and .def_104 .def_147))
(define-fun .def_150 () Bool (and .def_148 .def_149))
(define-fun .def_151 () Bool (and |.loc{10}| .def_150))
(define-fun .def_152 () Bool (and .def_107 .def_151))
(define-fun .def_153 () Bool (and .def_109 .def_152))
(define-fun .def_154 () Bool (and .def_111 .def_153))
(define-fun .def_156 () Bool (and .def_154 .def_155))
(define-fun .def_157 () Bool (and .def_113 .def_156))
(define-fun .def_159 () Bool (and .def_157 .def_158))
(define-fun .def_641 () Bool (or .def_159 .def_640))
(define-fun .def_643 () Bool (and .def_641 .def_642))
(define-fun .def_645 () Bool (and .def_643 .def_644))
(define-fun .def_647 () Bool (and .def_645 .def_646))
(define-fun .def_94 () Bool (= |.x{1672}| 0))
(define-fun .def_93 () Bool (= |.x{1668}| 0))
(define-fun .def_95 () Bool (and .def_93 .def_94))
(define-fun .def_91 () (Array Int Int) (store .def_10 0 0))
(define-fun .def_92 () Bool (= |.x{87}| .def_91))
(define-fun .def_96 () Bool (and .def_92 .def_95))
(define-fun .def_97 () Bool (or .def_50 .def_96))
(define-fun .def_78 () Bool (<= |.x{1663}| |.x{1676}|))
(define-fun .def_79 () Bool (not .def_78))
(define-fun .def_71 () (Array Int Int) (store .def_22 |.x{1676}| 400000))
(define-fun .def_72 () Bool (= |.x{1670}| .def_71))
(define-fun .def_68 () Int (select |.x{87}| |.x{1676}|))
(define-fun .def_69 () Bool (= .def_68 0))
(define-fun .def_73 () Bool (and .def_69 .def_72))
(define-fun .def_66 () Bool (= |.x{1676}| 0))
(define-fun .def_67 () Bool (not .def_66))
(define-fun .def_74 () Bool (and .def_67 .def_73))
(define-fun .def_64 () (Array Int Int) (store |.x{87}| |.x{1676}| 1))
(define-fun .def_65 () Bool (= |.x{1664}| .def_64))
(define-fun .def_75 () Bool (and .def_65 .def_74))
(define-fun .def_77 () Bool (and .def_75 .def_76))
(define-fun .def_80 () Bool (and .def_77 .def_79))
(define-fun .def_61 () Bool (= |.x{1675}| 0))
(define-fun .def_81 () Bool (and .def_61 .def_80))
(define-fun .def_82 () Bool (or |.x{1640}| .def_81))
(define-fun .def_84 () Bool (and .def_82 .def_83))
(define-fun .def_86 () Bool (and .def_84 .def_85))
(define-fun .def_88 () Bool (and .def_86 .def_87))
(define-fun .def_90 () Bool (and .def_88 .def_89))
(define-fun .def_98 () Bool (and .def_90 .def_97))
(define-fun .def_100 () Bool (and .def_98 .def_99))
(define-fun .def_101 () Bool (and .def_52 .def_100))
(define-fun .def_103 () Bool (and .def_101 .def_102))
(define-fun .def_105 () Bool (and .def_103 .def_104))
(define-fun .def_106 () Bool (and |.loc{10}| .def_105))
(define-fun .def_108 () Bool (and .def_106 .def_107))
(define-fun .def_110 () Bool (and .def_108 .def_109))
(define-fun .def_112 () Bool (and .def_110 .def_111))
(define-fun .def_114 () Bool (and .def_112 .def_113))
(define-fun .def_648 () Bool (or .def_114 .def_647))
(define-fun .def_660 () Bool (! (and .def_648 .def_659) :trans true))
(define-fun .def_676 () Bool (and .def_54 .def_144))
(define-fun .def_677 () Bool (and .def_56 .def_676))
(define-fun .def_678 () Bool (and .def_58 .def_677))
(define-fun .def_679 () Bool (and .def_50 .def_678))
(define-fun .def_680 () Bool (! (not .def_679) :invar-property 0))
(assert true)
